MA-Pb-I  Phonons/2015_MAPbI3/MAPbI3-Cubi
   1.00000000000000     
    17.4822735334851167    0.0345586626266937   -0.0394313741525757
    -0.1062790090636946   17.4823886284281187    0.0402354069942377
     0.1653782287749374   -0.1647134341431565   12.8346033385324301
   C    N    H    Pb   I    Cs
    14    14    84    16    49     2
Direct
  0.2281302060843333  0.0254854078262715  0.2248046041389939
  0.7220699985700236  0.5162006938551844  0.2235468524338405
  0.7437792388788449  0.5410593304815564  0.7393913054305462
  0.9797868643035917  0.7916183453500127  0.7159013253733278
  0.2129354755505503  0.0326206045743410  0.7367524197024624
  0.4737584373105863  0.2777925111312840  0.2172250205477372
  0.9597042350844471  0.2684806697745749  0.2738179821782059
  0.0076885817060463  0.3163426729988422  0.7353120759162979
  0.2186363289742960  0.5303201480262821  0.2367441186674434
  0.2211701443082689  0.5322706969569788  0.7385348270292682
  0.4693747062698466  0.7797528945382999  0.2010295328641274
  0.4778408710791503  0.7769099865207590  0.7205705156572724
  0.6962494727175987  0.0244550685990915  0.2432121890743507
  0.7102416105166428  0.0122471688460654  0.7278528903678889
  0.2748004851011859  0.9703496945807546  0.2828475872750726
  0.7787108920584910  0.4627895801590352  0.2665999383607649
  0.7859410655617421  0.4724848543212222  0.7727847654880712
  0.0287495120236119  0.7358174859081724  0.7690712535076175
  0.2628979811264123  0.9708349923408129  0.7739818878679614
  0.5248339980239840  0.2252813379528924  0.2728724631050563
  0.0195798875497976  0.2193259148919889  0.2264323070365836
 -0.0025443272136416  0.2323744512313370  0.7334215373307276
  0.2717095456145028  0.4747718708113342  0.2832367724013125
  0.2744218661068886  0.4754683981815467  0.7813127836962103
  0.5110705100724038  0.7382514124244053  0.2827712257023250
  0.5348990487711294  0.7249697628941180  0.7655495094026551
  0.7723124577737441  0.9885297689794579  0.2528246938265759
  0.7711136801861871  0.9753183874234571  0.7884992159467671
  0.2433272766702448  0.0218569791633074  0.1414956362532711
  0.7216087569997625  0.5099258638491532  0.1381978128961014
  0.7588698526114110  0.5530356553587944  0.6576559208337999
  0.9880674594951580  0.7849046166970343  0.6311737208224684
  0.2227942980422492  0.0404547393768676  0.6527481218302671
  0.4820790956798420  0.2690905665097353  0.1328113729203218
  0.9033183367914155  0.2495107741372656  0.2459962990274433
 -0.0201112740300151  0.3404449009466358  0.6665039968946860
  0.2246213177876766  0.5278308357918294  0.1513805270846822
  0.2291343150247810  0.5347294665308121  0.6535039090075510
  0.4893862356441097  0.7592698242603395  0.1241716115958497
  0.4826425907775319  0.7737744991559342  0.6350794836225920
  0.6693237886462376  0.0031781629583164  0.1712909006663833
  0.7143453496372342  0.9929604974027783  0.6461195915032928
  0.2401022756692829  0.0834967020158834  0.2548172544397365
  0.7383061731371297  0.5750317987455795  0.2455198878219686
  0.7604380669994294  0.5896064028966798  0.7895700819546143
 -0.0040342307825115  0.8498783754254898  0.7406934864989575
  0.2270794015167858  0.0855274555290487  0.7797887461692316
  0.4881108406273333  0.3371151192304804  0.2393604955692744
  0.9701321190894140  0.3282674991217192  0.2513372948563278
  0.0692404416610135  0.3298637729681574  0.7341480929280494
  0.2332825499994655  0.5879759704572557  0.2657358828122767
  0.2341181960490593  0.5884828806851130  0.7737290993417238
  0.4808510982347511  0.8414167548428424  0.2097727105578670
  0.4889236457715257  0.8357893423297347  0.7476971490200774
  0.7041404732707469  0.0869183665159266  0.2398569677286258
  0.7178391105046277  0.0746984346953979  0.7329678255615282
  0.1671850072270477  0.0113126164749681  0.2362026711148672
  0.6653098487396297  0.5022934640775510  0.2563423057631578
  0.6820653778496767  0.5295343880644768  0.7470562947090027
  0.9195552542621465  0.7807339176122147  0.7369307382456404
  0.1528958822949522  0.0165170545222958  0.7516484457062544
  0.4140113289241448  0.2653582879936138  0.2391717173167824
  0.9620302349410290  0.2630746924833059  0.3590562474472939
  0.9807884786412413  0.3394333011588396  0.8069227739894409
  0.1597459079458356  0.5153116613915282  0.2602105878255720
  0.1621641380387143  0.5149204076937307  0.7579999549566356
  0.4076488767900506  0.7687887181709060  0.2105154911519135
  0.4202013606601005  0.7589487334335037  0.7457107846518343
  0.6612106020368702  0.0089200986018344  0.3115830082731538
  0.6543310233995501  0.9955531238106642  0.7609015612216710
  0.3333430503377959  0.9822556204893664  0.2745496786944423
  0.8343113350813137  0.4740242759661558  0.2390933677734846
  0.8452472494037223  0.4818925434968088  0.7676747647683706
  0.0870396474446971  0.7444233609101872  0.7512175409820289
  0.3211967680152235  0.9832652301526698  0.7623416389450522
  0.5826486899678521  0.2350509036338992  0.2533152861858628
  0.0206291490206130  0.2208974808955184  0.1449009326127208
  0.0215464085605542  0.2078149761594932  0.6656678823548584
  0.3289293928977638  0.4875014747629505  0.2647144378785444
  0.3317465223859728  0.4902953341367168  0.7667011713961376
  0.5700966335189112  0.7477171695142266  0.2774377248139822
  0.5908737980234708  0.7390972421351785  0.7426817558696200
  0.8067781233552911  0.0027485992693779  0.1886919972532211
  0.8261632981274590  0.9897815323229953  0.7612253622390959
  0.2648596968350805  0.9136309045648862  0.2581519504802672
  0.7650862750497105  0.4055470261464754  0.2487789518710830
  0.7719727072158087  0.4253336581639093  0.7261593783711002
  0.0151687133592393  0.6792446620445532  0.7481454381011426
  0.2511227276111144  0.9181302499590569  0.7379961907755700
  0.5121793014683346  0.1677776438342468  0.2554705960555152
  0.0117974042893845  0.1614054810265960  0.2454297671047238
  0.9390280012583632  0.2180097699587746  0.7353904444857446
  0.2596504219142938  0.4184853386034022  0.2594732216027887
  0.2646837712113341  0.4202503854084103  0.7515167214973774
  0.5020719736765621  0.6791029803627834  0.2771649469612243
  0.5246750667035480  0.6680966783556963  0.7425247860614873
  0.7677420405483891  0.9289949782663480  0.2569246191671402
  0.7655555866634974  0.9156427329689723  0.7852456137480676
  0.2610078780646746  0.9719886758182352  0.3621830714902203
  0.7814899205543412  0.4667807405343928  0.3476457070496436
  0.7716914822346930  0.4580411995717402  0.8493385445621661
  0.0240366298147110  0.7386232846110774  0.8502341079802228
  0.2541326665405869  0.9618954677626029  0.8536052908915532
  0.5210540601654338  0.2310731450899670  0.3537394962571197
  0.0745328521142303  0.2352239943245558  0.2502741557846083
  0.0228054582689277  0.2071023271579326  0.7982010730580430
  0.2667119202698604  0.4762651109199051  0.3643256425627968
  0.2675090496796292  0.4715915545207453  0.8619509822656728
  0.4929905348692445  0.7561509403746041  0.3569082678513850
  0.5345359795535991  0.7249592125454685  0.8470623931963865
  0.7998832164506294  0.0090757864537874  0.3198634577028835
  0.7689030853918717  0.9924071129070360  0.8667573934505378
  0.2322922006535023  0.7603961524192346  0.4838409393265190
  0.7345489097589437  0.2555396371463052  0.5269545077149320
  0.7383248895595559  0.2510763939889982  0.9892901642172889
  0.9888691039189825  0.5164595723375771  0.4904122106616759
  0.9889723742576249  0.5098932393937110  0.9941290298228268
  0.2381732440596798  0.7589885458553955  0.9916037431288858
  0.4809718997532548  0.0058186973678878  0.4914369063373824
  0.4854095517849714  0.0139230880248069  0.9869409390632329
  0.9869912445415705  0.0110029252836103  0.4882922838298840
  0.9865860723916556  0.0075514053762407  0.9882184839881443
  0.2331896029437594  0.2627139799466707  0.4893954736706011
  0.2340551052891552  0.2626186239325938  0.9872353575689076
  0.4814281935163710  0.5107132697340518  0.4879233178932000
  0.4875628308807324  0.5091822469968659  0.9862524811219776
  0.7369578472568975  0.7615746074385418  0.4905261767490909
  0.7384946535472218  0.7614509311116914  0.9945150209124813
  0.2231595844425458  0.7748133058669215  0.2351732934411542
  0.7249844499041285  0.2636402597629051  0.2326862066027948
  0.7954585837326588  0.2219504646757499  0.7481007478403400
  0.9815200023593095  0.5041127363324771  0.2409325842384542
  0.9795146298012816  0.5350428698164589  0.7414729364043460
  0.2304347362475709  0.7669929267734252  0.7342973594598877
  0.4728170256595389  0.0269059062724343  0.2360584625690652
  0.4652379267479672  0.0072058832482046  0.7357807402817477
  0.9931012328097163  0.0155909903096357  0.2365499862706446
  0.9670689694983337  0.0227441354914314  0.7373122775967500
  0.2224773115763740  0.2733711917451200  0.2374587523960725
  0.2336699567113263  0.2737077002050899  0.7366014733582676
  0.4725778166062119  0.5284831123717590  0.2417154793087450
  0.4729836501208882  0.5290271612156717  0.7415338178756993
  0.7212279287691026  0.7806833142013447  0.2403826865002461
  0.7381785310351475  0.7718252245268998  0.7407214228708956
  0.3788579020207880  0.8675912557438875  0.9791021826587397
  0.8831339702197051  0.3623677533006334  0.9998270168703484
  0.8600034396462043  0.3846710855391621  0.5085633983606702
  0.0829506265217400  0.6634592144592034  0.0117179972008147
  0.0734009227186847  0.6734174653878154  0.4836360486522200
  0.3890054770011233  0.8507647347663500  0.4612767147644387
  0.5781943738906991  0.1683063944332175  0.9728258658972520
  0.5842700537265225  0.1533937460021512  0.5160218489354091
  0.0773223994339955  0.1677680666886343  0.9712753516778775
  0.0774477850449311  0.1690774635684515  0.4918990812907642
  0.3850523643625062  0.3609914020686150  0.9712634368342209
  0.3877315915022708  0.3551401515129859  0.4886857883404773
  0.5920728052904429  0.6556399443446119  0.0078064888608371
  0.5916893987102888  0.6532013651885995  0.5049985086084218
  0.8956651503471929  0.8520668167063273  0.9934030349987341
  0.8832255860281273  0.8650921910400257  0.4616092567857137
  0.1462563488341681  0.9198481809096331  0.4952048254689693
  0.6158194666231245  0.3926931112593112  0.4248376511519025
  0.6418186972063571  0.4054902976784139  0.9546692716081491
  0.8369627421902608  0.6151182930946416  0.4547899995870699
  0.8390602576907298  0.6130557494399214  0.0071425895599538
  0.1365173723569404  0.9102286821149851  0.9749923328491057
  0.3315973734704585  0.1117297030991041  0.4881780796393280
  0.3344850828616286  0.1144057631875067  0.9683326740443765
  0.8357470909200978  0.1091268282046108  0.4619083576410242
  0.8227589257720970  0.0888325906381582  0.0179615265667133
  0.1409845805522412  0.4200030407669678  0.4923968117007869
  0.3302698310662004  0.6070190569680654  0.4840860499348678
  0.3376471874954438  0.6082371304675055  0.9894371192910001
  0.6246011461599811  0.9019702211903249  0.4840869381661212
  0.6310107888914883  0.9074346413638440  0.9784435607966483
  0.1432762960913915  0.4188777197780705  0.9825549915859405
  0.6285999139315442  0.3635500681917496  0.6740717813618641
  0.9551849057981466  0.7306598729206050  0.2396601414843422
  0.4510607466265745  0.2288517786279578  0.7366893821123314
 
  0.00000000E+00  0.00000000E+00  0.00000000E+00
  0.00000000E+00  0.00000000E+00  0.00000000E+00
  0.00000000E+00  0.00000000E+00  0.00000000E+00
  0.00000000E+00  0.00000000E+00  0.00000000E+00
  0.00000000E+00  0.00000000E+00  0.00000000E+00
  0.00000000E+00  0.00000000E+00  0.00000000E+00
  0.00000000E+00  0.00000000E+00  0.00000000E+00
  0.00000000E+00  0.00000000E+00  0.00000000E+00
  0.00000000E+00  0.00000000E+00  0.00000000E+00
  0.00000000E+00  0.00000000E+00  0.00000000E+00
  0.00000000E+00  0.00000000E+00  0.00000000E+00
  0.00000000E+00  0.00000000E+00  0.00000000E+00
  0.00000000E+00  0.00000000E+00  0.00000000E+00
  0.00000000E+00  0.00000000E+00  0.00000000E+00
  0.00000000E+00  0.00000000E+00  0.00000000E+00
  0.00000000E+00  0.00000000E+00  0.00000000E+00
  0.00000000E+00  0.00000000E+00  0.00000000E+00
  0.00000000E+00  0.00000000E+00  0.00000000E+00
  0.00000000E+00  0.00000000E+00  0.00000000E+00
  0.00000000E+00  0.00000000E+00  0.00000000E+00
  0.00000000E+00  0.00000000E+00  0.00000000E+00
  0.00000000E+00  0.00000000E+00  0.00000000E+00
  0.00000000E+00  0.00000000E+00  0.00000000E+00
  0.00000000E+00  0.00000000E+00  0.00000000E+00
  0.00000000E+00  0.00000000E+00  0.00000000E+00
  0.00000000E+00  0.00000000E+00  0.00000000E+00
  0.00000000E+00  0.00000000E+00  0.00000000E+00
  0.00000000E+00  0.00000000E+00  0.00000000E+00
  0.00000000E+00  0.00000000E+00  0.00000000E+00
  0.00000000E+00  0.00000000E+00  0.00000000E+00
  0.00000000E+00  0.00000000E+00  0.00000000E+00
  0.00000000E+00  0.00000000E+00  0.00000000E+00
  0.00000000E+00  0.00000000E+00  0.00000000E+00
  0.00000000E+00  0.00000000E+00  0.00000000E+00
  0.00000000E+00  0.00000000E+00  0.00000000E+00
  0.00000000E+00  0.00000000E+00  0.00000000E+00
  0.00000000E+00  0.00000000E+00  0.00000000E+00
  0.00000000E+00  0.00000000E+00  0.00000000E+00
  0.00000000E+00  0.00000000E+00  0.00000000E+00
  0.00000000E+00  0.00000000E+00  0.00000000E+00
  0.00000000E+00  0.00000000E+00  0.00000000E+00
  0.00000000E+00  0.00000000E+00  0.00000000E+00
  0.00000000E+00  0.00000000E+00  0.00000000E+00
  0.00000000E+00  0.00000000E+00  0.00000000E+00
  0.00000000E+00  0.00000000E+00  0.00000000E+00
  0.00000000E+00  0.00000000E+00  0.00000000E+00
  0.00000000E+00  0.00000000E+00  0.00000000E+00
  0.00000000E+00  0.00000000E+00  0.00000000E+00
  0.00000000E+00  0.00000000E+00  0.00000000E+00
  0.00000000E+00  0.00000000E+00  0.00000000E+00
  0.00000000E+00  0.00000000E+00  0.00000000E+00
  0.00000000E+00  0.00000000E+00  0.00000000E+00
  0.00000000E+00  0.00000000E+00  0.00000000E+00
  0.00000000E+00  0.00000000E+00  0.00000000E+00
  0.00000000E+00  0.00000000E+00  0.00000000E+00
  0.00000000E+00  0.00000000E+00  0.00000000E+00
  0.00000000E+00  0.00000000E+00  0.00000000E+00
  0.00000000E+00  0.00000000E+00  0.00000000E+00
  0.00000000E+00  0.00000000E+00  0.00000000E+00
  0.00000000E+00  0.00000000E+00  0.00000000E+00
  0.00000000E+00  0.00000000E+00  0.00000000E+00
  0.00000000E+00  0.00000000E+00  0.00000000E+00
  0.00000000E+00  0.00000000E+00  0.00000000E+00
  0.00000000E+00  0.00000000E+00  0.00000000E+00
  0.00000000E+00  0.00000000E+00  0.00000000E+00
  0.00000000E+00  0.00000000E+00  0.00000000E+00
  0.00000000E+00  0.00000000E+00  0.00000000E+00
  0.00000000E+00  0.00000000E+00  0.00000000E+00
  0.00000000E+00  0.00000000E+00  0.00000000E+00
  0.00000000E+00  0.00000000E+00  0.00000000E+00
  0.00000000E+00  0.00000000E+00  0.00000000E+00
  0.00000000E+00  0.00000000E+00  0.00000000E+00
  0.00000000E+00  0.00000000E+00  0.00000000E+00
  0.00000000E+00  0.00000000E+00  0.00000000E+00
  0.00000000E+00  0.00000000E+00  0.00000000E+00
  0.00000000E+00  0.00000000E+00  0.00000000E+00
  0.00000000E+00  0.00000000E+00  0.00000000E+00
  0.00000000E+00  0.00000000E+00  0.00000000E+00
  0.00000000E+00  0.00000000E+00  0.00000000E+00
  0.00000000E+00  0.00000000E+00  0.00000000E+00
  0.00000000E+00  0.00000000E+00  0.00000000E+00
  0.00000000E+00  0.00000000E+00  0.00000000E+00
  0.00000000E+00  0.00000000E+00  0.00000000E+00
  0.00000000E+00  0.00000000E+00  0.00000000E+00
  0.00000000E+00  0.00000000E+00  0.00000000E+00
  0.00000000E+00  0.00000000E+00  0.00000000E+00
  0.00000000E+00  0.00000000E+00  0.00000000E+00
  0.00000000E+00  0.00000000E+00  0.00000000E+00
  0.00000000E+00  0.00000000E+00  0.00000000E+00
  0.00000000E+00  0.00000000E+00  0.00000000E+00
  0.00000000E+00  0.00000000E+00  0.00000000E+00
  0.00000000E+00  0.00000000E+00  0.00000000E+00
  0.00000000E+00  0.00000000E+00  0.00000000E+00
  0.00000000E+00  0.00000000E+00  0.00000000E+00
  0.00000000E+00  0.00000000E+00  0.00000000E+00
  0.00000000E+00  0.00000000E+00  0.00000000E+00
  0.00000000E+00  0.00000000E+00  0.00000000E+00
  0.00000000E+00  0.00000000E+00  0.00000000E+00
  0.00000000E+00  0.00000000E+00  0.00000000E+00
  0.00000000E+00  0.00000000E+00  0.00000000E+00
  0.00000000E+00  0.00000000E+00  0.00000000E+00
  0.00000000E+00  0.00000000E+00  0.00000000E+00
  0.00000000E+00  0.00000000E+00  0.00000000E+00
  0.00000000E+00  0.00000000E+00  0.00000000E+00
  0.00000000E+00  0.00000000E+00  0.00000000E+00
  0.00000000E+00  0.00000000E+00  0.00000000E+00
  0.00000000E+00  0.00000000E+00  0.00000000E+00
  0.00000000E+00  0.00000000E+00  0.00000000E+00
  0.00000000E+00  0.00000000E+00  0.00000000E+00
  0.00000000E+00  0.00000000E+00  0.00000000E+00
  0.00000000E+00  0.00000000E+00  0.00000000E+00
  0.00000000E+00  0.00000000E+00  0.00000000E+00
  0.00000000E+00  0.00000000E+00  0.00000000E+00
  0.00000000E+00  0.00000000E+00  0.00000000E+00
  0.00000000E+00  0.00000000E+00  0.00000000E+00
  0.00000000E+00  0.00000000E+00  0.00000000E+00
  0.00000000E+00  0.00000000E+00  0.00000000E+00
  0.00000000E+00  0.00000000E+00  0.00000000E+00
  0.00000000E+00  0.00000000E+00  0.00000000E+00
  0.00000000E+00  0.00000000E+00  0.00000000E+00
  0.00000000E+00  0.00000000E+00  0.00000000E+00
  0.00000000E+00  0.00000000E+00  0.00000000E+00
  0.00000000E+00  0.00000000E+00  0.00000000E+00
  0.00000000E+00  0.00000000E+00  0.00000000E+00
  0.00000000E+00  0.00000000E+00  0.00000000E+00
  0.00000000E+00  0.00000000E+00  0.00000000E+00
  0.00000000E+00  0.00000000E+00  0.00000000E+00
  0.00000000E+00  0.00000000E+00  0.00000000E+00
  0.00000000E+00  0.00000000E+00  0.00000000E+00
  0.00000000E+00  0.00000000E+00  0.00000000E+00
  0.00000000E+00  0.00000000E+00  0.00000000E+00
  0.00000000E+00  0.00000000E+00  0.00000000E+00
  0.00000000E+00  0.00000000E+00  0.00000000E+00
  0.00000000E+00  0.00000000E+00  0.00000000E+00
  0.00000000E+00  0.00000000E+00  0.00000000E+00
  0.00000000E+00  0.00000000E+00  0.00000000E+00
  0.00000000E+00  0.00000000E+00  0.00000000E+00
  0.00000000E+00  0.00000000E+00  0.00000000E+00
  0.00000000E+00  0.00000000E+00  0.00000000E+00
  0.00000000E+00  0.00000000E+00  0.00000000E+00
  0.00000000E+00  0.00000000E+00  0.00000000E+00
  0.00000000E+00  0.00000000E+00  0.00000000E+00
  0.00000000E+00  0.00000000E+00  0.00000000E+00
  0.00000000E+00  0.00000000E+00  0.00000000E+00
  0.00000000E+00  0.00000000E+00  0.00000000E+00
  0.00000000E+00  0.00000000E+00  0.00000000E+00
  0.00000000E+00  0.00000000E+00  0.00000000E+00
  0.00000000E+00  0.00000000E+00  0.00000000E+00
  0.00000000E+00  0.00000000E+00  0.00000000E+00
  0.00000000E+00  0.00000000E+00  0.00000000E+00
  0.00000000E+00  0.00000000E+00  0.00000000E+00
  0.00000000E+00  0.00000000E+00  0.00000000E+00
  0.00000000E+00  0.00000000E+00  0.00000000E+00
  0.00000000E+00  0.00000000E+00  0.00000000E+00
  0.00000000E+00  0.00000000E+00  0.00000000E+00
  0.00000000E+00  0.00000000E+00  0.00000000E+00
  0.00000000E+00  0.00000000E+00  0.00000000E+00
  0.00000000E+00  0.00000000E+00  0.00000000E+00
  0.00000000E+00  0.00000000E+00  0.00000000E+00
  0.00000000E+00  0.00000000E+00  0.00000000E+00
  0.00000000E+00  0.00000000E+00  0.00000000E+00
  0.00000000E+00  0.00000000E+00  0.00000000E+00
  0.00000000E+00  0.00000000E+00  0.00000000E+00
  0.00000000E+00  0.00000000E+00  0.00000000E+00
  0.00000000E+00  0.00000000E+00  0.00000000E+00
  0.00000000E+00  0.00000000E+00  0.00000000E+00
  0.00000000E+00  0.00000000E+00  0.00000000E+00
  0.00000000E+00  0.00000000E+00  0.00000000E+00
  0.00000000E+00  0.00000000E+00  0.00000000E+00
  0.00000000E+00  0.00000000E+00  0.00000000E+00
  0.00000000E+00  0.00000000E+00  0.00000000E+00
  0.00000000E+00  0.00000000E+00  0.00000000E+00
  0.00000000E+00  0.00000000E+00  0.00000000E+00
  0.00000000E+00  0.00000000E+00  0.00000000E+00
  0.00000000E+00  0.00000000E+00  0.00000000E+00
  0.00000000E+00  0.00000000E+00  0.00000000E+00
  0.00000000E+00  0.00000000E+00  0.00000000E+00
  0.00000000E+00  0.00000000E+00  0.00000000E+00
  0.00000000E+00  0.00000000E+00  0.00000000E+00
