MA-Pb-I  Phonons/2015_MAPbI3/MAPbI3-Cubi
   1.00000000000000     
    17.4822735334851167    0.0345586626266937   -0.0394313741525757
    -0.1062790090636946   17.4823886284281187    0.0402354069942377
     0.1653782287749374   -0.1647134341431565   12.8346033385324301
   C    N    H    Pb   I    Cs
    14    14    84    16    49     2
Direct
  0.2315038913993019  0.0265672370374046  0.2289231336885634
  0.7160836591576211  0.5374467408186266  0.2508707257610514
  0.7322159721073715  0.5387590380716200  0.7324228801818184
  0.9728463825422117  0.7752057121091748  0.7003872578699886
  0.2086033414280535  0.0452568974743793  0.7354220031199762
  0.4910723666159217  0.2822204917759499  0.2121504130811577
  0.9599768592088924  0.2640879128227622  0.2657175394343623
  0.0161481672735751  0.3160715844658103  0.7323736387911127
  0.2148652472232830  0.5327751438747081  0.2362032025551665
  0.2186975372308369  0.5248390280212267  0.7367175179722087
  0.4761653219088791  0.7885882533669034  0.2056210434932868
  0.4666719688245495  0.7629261863479349  0.7112594175941658
  0.6964276668473605  0.0273396517465680  0.2470512134519176
  0.7022568589386385  0.0064197448664954  0.7273343084484838
  0.2759211962556242  0.9700583752909556  0.2877168516033004
  0.7553052230763762  0.4627059577333245  0.2495828590251339
  0.7796897285009609  0.4843182160667626  0.7904700309618616
  0.0139209456394189  0.7380473775432778  0.7863125730318155
  0.2457855512053693  0.9695883975020640  0.7409004466531337
  0.5368425708061380  0.2309047047318152  0.2774891121015822
  0.0216980095295430  0.2146910430231286  0.2234471636562301
  0.0129366195168565  0.2315691817684197  0.7301800250248893
  0.2740677778445070  0.4844135064944831  0.2839331082914930
  0.2837676151960495  0.4819141975491004  0.7793402126421082
  0.5151509278371532  0.7462498596996310  0.2890152234430044
  0.5268868277394527  0.7175415282803058  0.7613664733748576
  0.7725338887304587  0.9907368708343705  0.2502253174502722
  0.7704480406664231  0.9822241134200066  0.7855936605603938
  0.2513104469575573  0.0265785361881905  0.1472545712281333
  0.7366592481698566  0.5711985789287607  0.1841919872408103
  0.7361691321498494  0.5249503829866539  0.6487468338917700
  0.9930818167712387  0.7508264782391247  0.6256303253639647
  0.2272350363249890  0.0734238916626756  0.6630984132741046
  0.4994600232793101  0.2656158882311200  0.1298740222518187
  0.9045920836531783  0.2444339374595688  0.2351241711369622
  0.9850447909665996  0.3378266539890547  0.6647092255128493
  0.2105595370147386  0.5182358253346429  0.1528507613329053
  0.2093338468260440  0.5066556990447960  0.6554897182532403
  0.4978946798109711  0.7683383267861725  0.1295142705150853
  0.4717253372145052  0.7551498174662179  0.6263138242021536
  0.6648109009323004  0.0039180763215743  0.1801506268335678
  0.7039303323029118  0.9805610668396092  0.6488060787343704
  0.2406916589533356  0.0835120928436693  0.2641842703882274
  0.7288962292469345  0.5672361406574346  0.3246561337569729
  0.7533956901308559  0.5972638320080359  0.7466094311911219
  0.9841831456106517  0.8371905426014651  0.7031631453506798
  0.2256341905215687  0.0796088729778658  0.8037579607724514
  0.5108167657005332  0.3414206615666316  0.2248496321655898
  0.9706558135104182  0.3235761773607149  0.2422296887692565
  0.0763312425576442  0.3346879641194384  0.7294303812651993
  0.2312088805336434  0.5932882117694496  0.2459667401485877
  0.2319022654332054  0.5864452394546225  0.7401076220197877
  0.4880011004342593  0.8501110426332927  0.2156235789207146
  0.4738655516991835  0.8237353687384248  0.7321327050012512
  0.7048311871490306  0.0894685046666400  0.2382328482465904
  0.7025894604371306  0.0691390673231146  0.7220150125770808
  0.1704193626456895  0.0110744647858294  0.2328914286436059
  0.6540819717322873  0.5273718437329887  0.2444443826350997
  0.6724814258274785  0.5331685400123155  0.7593551336483961
  0.9110649249509013  0.7646900715080551  0.7099777779485532
  0.1461525540789210  0.0366629775814521  0.7354038942454882
  0.4303139653795489  0.2771176605621179  0.2342203545152026
  0.9594308782200508  0.2602112429102961  0.3512060489186641
  0.9885012195398648  0.3367048470971004  0.8048433108018157
  0.1598904847579653  0.5218309597352561  0.2760167597851242
  0.1675588734266861  0.5123726724496792  0.7844669788380418
  0.4141434070787277  0.7781685033030288  0.2119019000526708
  0.4102957325683448  0.7428058077296843  0.7385722419668201
  0.6655033831085035  0.0150648746154384  0.3200820091692378
  0.6508316137387098  0.9867170380650849  0.7695261762129042
  0.3344730022014463  0.9830135722464983  0.2851500674285762
  0.8148640317973704  0.4687136832247953  0.2534384277647084
  0.8368351270126162  0.4858466111912602  0.7651590813337515
  0.0733665216952838  0.7462984202801431  0.7796388392328950
  0.3055670147813350  0.9743499008071448  0.7418463719158489
  0.5957437589267880  0.2349115928468029  0.2576929482402012
  0.0254073897373407  0.2152494467911990  0.1419070116622741
  0.0381864526376243  0.2090354616585215  0.6619697665124036
  0.3284243706717977  0.4945036212252293  0.2515925418851901
  0.3350494779207150  0.4928221246669832  0.7394793840107400
  0.5743420489607013  0.7548523016811357  0.2865408133771665
  0.5818020342074750  0.7341304404842032  0.7373409642217833
  0.8035398218388099  0.0044873488879281  0.1824460101772060
  0.8219454911543622  0.9990309757618876  0.7499147853765482
  0.2682577180813731  0.9139501650156758  0.2590179929193454
  0.7417324242952998  0.4319911912799468  0.1817633469332670
  0.7575285431414295  0.4286931322302663  0.7815373013694871
  0.0044496558486252  0.6786920155281193  0.7859281440492163
  0.2300199642995233  0.9358974544187079  0.6765516947694921
  0.5200079724275143  0.1736850440436681  0.2681834211705283
  0.0136375074471155  0.1570370527448198  0.2434514456518091
  0.9556785706773843  0.2123632908709917  0.7326334430692714
  0.2610568236498417  0.4261541741268233  0.2761286229272649
  0.2737695569418125  0.4227606133021993  0.7770532297386219
  0.5053878889626963  0.6872630132488098  0.2827759065193031
  0.5207544612510611  0.6589428227200520  0.7437497703220065
  0.7680509371102823  0.9313638783660875  0.2559790487222620
  0.7709594654770811  0.9226784372522816  0.7920186043163944
  0.2582182430383050  0.9685377238167343  0.3657933811972410
  0.7358264526867608  0.4295268854447189  0.3122283164927022
  0.7800869685244569  0.4977325124870262  0.8699148797823626
 -0.0038627837255226  0.7593408068187931  0.8589458062209901
  0.2276210084284823  0.9409804224912208  0.8084033636056784
  0.5324610103852067  0.2444973023393146  0.3564783997953430
  0.0755508428875365  0.2314094046019036  0.2503782079810016
  0.0402027048349492  0.2083097589496961  0.7948734822323889
  0.2791047255119826  0.4975818087217823  0.3634070379637930
  0.2937155439712489  0.4986518676728883  0.8567730283868094
  0.4952956478480949  0.7644464461162157  0.3623138666087869
  0.5260447969712095  0.7217232090378776  0.8427640603583942
  0.8034497659107802  0.0123170512361150  0.3141180126275933
  0.7717878475203349  0.0059797057419629  0.8610434060578294
  0.2353197837972571  0.7531212193834309  0.4864992019742410
  0.7364493278510181  0.2578418086020093  0.5595459120103926
  0.7307353496911914  0.2579331000288148  0.9668848812231594
  0.9866019091994619  0.5123924607967176  0.4944789165424295
  0.9867609433240225  0.5068981926713183  0.9981066218963249
  0.2372637701694909  0.7575994377702637  0.9897129069907443
  0.4815553239678640  0.0075332785521077  0.4940692909738634
  0.4812911055969065  0.0099613446158486  0.9878111891878892
  0.9865661726488427  0.0121612479440483  0.4842614471209450
  0.9867949635301166  0.0059339375717602  0.9845857438331239
  0.2374493077435654  0.2655296876688337  0.4887288611558014
  0.2379113783570308  0.2647807250218138  0.9897843616136742
  0.4940564712420870  0.5030474834751389  0.4864075252507895
  0.4923338939330191  0.5086623373662434  0.9931120962050574
  0.7391346379535513  0.7640447387912039  0.4934506938713316
  0.7368183361732141  0.7638553497373047  0.9933615693129474
  0.2340460400537312  0.7737660133817870  0.2357879629535805
  0.7317983488964502  0.2529141664516114  0.2115572164804650
  0.8182693478441380  0.1890527989960738  0.7489091604925592
  0.9624870465270807  0.4995647517686053  0.2454313634698506
  0.9791918810038602  0.5355950722167434  0.7462214169663740
  0.2176499938009954  0.7566973629004763  0.7364546259437675
  0.4719628813159172  0.0319426034226972  0.2375418812532110
  0.4552359606296874  0.0001624247615304  0.7357121977279063
  0.0001482368757518  0.0091419364293133  0.2325497185129496
  0.9731242562818823  0.0099824876639282  0.7331940070569715
  0.2243017291367535  0.2787283162949959  0.2381245172607434
  0.2397166625878961  0.2791813682620511  0.7375789478105940
  0.4728126356617984  0.5377036216410134  0.2430872145989929
  0.4883218406008895  0.5157387630384256  0.7415164292102016
  0.7268598526957463  0.7792620127358709  0.2405135529144036
  0.7300717863819299  0.7783668688700041  0.7417700438005050
  0.3855182223935561  0.8561502911613255  0.9713382887071930
  0.8819286845607176  0.3607761294816477 -0.0181820548674778
  0.8642133519691285  0.3800531269705252  0.5174513034320597
  0.0838518164483323  0.6590861986515298  0.0194612451729095
  0.0809987680450965  0.6640871240090669  0.4619352297314427
  0.3889240544237265  0.8512798058831508  0.4648140323986576
  0.5788420905666734  0.1597115491412782  0.9635193309787367
  0.5902771276633609  0.1491712249728614  0.5206707184922867
  0.0838300988542235  0.1635435635538402  0.9705281712559539
  0.0849101632479531  0.1666659319613457  0.4855468655567232
  0.3907211952810988  0.3597025923235302  0.9745814354733499
  0.3957956466078896  0.3506603644165417  0.4799686042988945
  0.5890684632250296  0.6621334418848005  0.0055720579662739
  0.5966458046764180  0.6519716035688040  0.5035560423146439
  0.9019137759501132  0.8454135487246863  0.9850505394546086
  0.8874932560199636  0.8637495196834106  0.4617774435119808
  0.1517412445559350  0.9161133763000742  0.5019073479179376
  0.6268480377760225  0.3893800173824377  0.4362963518729301
  0.6464441380793847  0.4192556786162064  0.0221387162231101
  0.8435053493617025  0.6214620021722432  0.4789160572455970
  0.8348476866816525  0.6114161569580970  0.0012046128370045
  0.1437080391332973  0.9121861387672813  0.9700422251115883
  0.3327463977787909  0.1124256386026438  0.4901028119991453
  0.3350363057201219  0.1146379174260375  0.9715490436492041
  0.8423611951127422  0.1097809705931182  0.4521285845057651
  0.8272503727155313  0.0866228959112296  0.0178417181625022
  0.1389094855265673  0.4166202682532845  0.4838263621742340
  0.3344858978356072  0.5997774918573572  0.5006360037554320
  0.3367228011404622  0.6047804032475780  0.9878587709550456
  0.6220167136359785  0.8992370729444443  0.4765109001015616
  0.6346887169844032  0.9118638583177368  0.9878637010760168
  0.1400605216342086  0.4159491502947527  0.9821450654831705
  0.6510497267003895  0.3330685353880149  0.7439960031121561
  0.9500959307213702  0.7250522551037958  0.2395175708111695
  0.4544913873991145  0.2260791098314505  0.7352586409788351
 
  0.00000000E+00  0.00000000E+00  0.00000000E+00
  0.00000000E+00  0.00000000E+00  0.00000000E+00
  0.00000000E+00  0.00000000E+00  0.00000000E+00
  0.00000000E+00  0.00000000E+00  0.00000000E+00
  0.00000000E+00  0.00000000E+00  0.00000000E+00
  0.00000000E+00  0.00000000E+00  0.00000000E+00
  0.00000000E+00  0.00000000E+00  0.00000000E+00
  0.00000000E+00  0.00000000E+00  0.00000000E+00
  0.00000000E+00  0.00000000E+00  0.00000000E+00
  0.00000000E+00  0.00000000E+00  0.00000000E+00
  0.00000000E+00  0.00000000E+00  0.00000000E+00
  0.00000000E+00  0.00000000E+00  0.00000000E+00
  0.00000000E+00  0.00000000E+00  0.00000000E+00
  0.00000000E+00  0.00000000E+00  0.00000000E+00
  0.00000000E+00  0.00000000E+00  0.00000000E+00
  0.00000000E+00  0.00000000E+00  0.00000000E+00
  0.00000000E+00  0.00000000E+00  0.00000000E+00
  0.00000000E+00  0.00000000E+00  0.00000000E+00
  0.00000000E+00  0.00000000E+00  0.00000000E+00
  0.00000000E+00  0.00000000E+00  0.00000000E+00
  0.00000000E+00  0.00000000E+00  0.00000000E+00
  0.00000000E+00  0.00000000E+00  0.00000000E+00
  0.00000000E+00  0.00000000E+00  0.00000000E+00
  0.00000000E+00  0.00000000E+00  0.00000000E+00
  0.00000000E+00  0.00000000E+00  0.00000000E+00
  0.00000000E+00  0.00000000E+00  0.00000000E+00
  0.00000000E+00  0.00000000E+00  0.00000000E+00
  0.00000000E+00  0.00000000E+00  0.00000000E+00
  0.00000000E+00  0.00000000E+00  0.00000000E+00
  0.00000000E+00  0.00000000E+00  0.00000000E+00
  0.00000000E+00  0.00000000E+00  0.00000000E+00
  0.00000000E+00  0.00000000E+00  0.00000000E+00
  0.00000000E+00  0.00000000E+00  0.00000000E+00
  0.00000000E+00  0.00000000E+00  0.00000000E+00
  0.00000000E+00  0.00000000E+00  0.00000000E+00
  0.00000000E+00  0.00000000E+00  0.00000000E+00
  0.00000000E+00  0.00000000E+00  0.00000000E+00
  0.00000000E+00  0.00000000E+00  0.00000000E+00
  0.00000000E+00  0.00000000E+00  0.00000000E+00
  0.00000000E+00  0.00000000E+00  0.00000000E+00
  0.00000000E+00  0.00000000E+00  0.00000000E+00
  0.00000000E+00  0.00000000E+00  0.00000000E+00
  0.00000000E+00  0.00000000E+00  0.00000000E+00
  0.00000000E+00  0.00000000E+00  0.00000000E+00
  0.00000000E+00  0.00000000E+00  0.00000000E+00
  0.00000000E+00  0.00000000E+00  0.00000000E+00
  0.00000000E+00  0.00000000E+00  0.00000000E+00
  0.00000000E+00  0.00000000E+00  0.00000000E+00
  0.00000000E+00  0.00000000E+00  0.00000000E+00
  0.00000000E+00  0.00000000E+00  0.00000000E+00
  0.00000000E+00  0.00000000E+00  0.00000000E+00
  0.00000000E+00  0.00000000E+00  0.00000000E+00
  0.00000000E+00  0.00000000E+00  0.00000000E+00
  0.00000000E+00  0.00000000E+00  0.00000000E+00
  0.00000000E+00  0.00000000E+00  0.00000000E+00
  0.00000000E+00  0.00000000E+00  0.00000000E+00
  0.00000000E+00  0.00000000E+00  0.00000000E+00
  0.00000000E+00  0.00000000E+00  0.00000000E+00
  0.00000000E+00  0.00000000E+00  0.00000000E+00
  0.00000000E+00  0.00000000E+00  0.00000000E+00
  0.00000000E+00  0.00000000E+00  0.00000000E+00
  0.00000000E+00  0.00000000E+00  0.00000000E+00
  0.00000000E+00  0.00000000E+00  0.00000000E+00
  0.00000000E+00  0.00000000E+00  0.00000000E+00
  0.00000000E+00  0.00000000E+00  0.00000000E+00
  0.00000000E+00  0.00000000E+00  0.00000000E+00
  0.00000000E+00  0.00000000E+00  0.00000000E+00
  0.00000000E+00  0.00000000E+00  0.00000000E+00
  0.00000000E+00  0.00000000E+00  0.00000000E+00
  0.00000000E+00  0.00000000E+00  0.00000000E+00
  0.00000000E+00  0.00000000E+00  0.00000000E+00
  0.00000000E+00  0.00000000E+00  0.00000000E+00
  0.00000000E+00  0.00000000E+00  0.00000000E+00
  0.00000000E+00  0.00000000E+00  0.00000000E+00
  0.00000000E+00  0.00000000E+00  0.00000000E+00
  0.00000000E+00  0.00000000E+00  0.00000000E+00
  0.00000000E+00  0.00000000E+00  0.00000000E+00
  0.00000000E+00  0.00000000E+00  0.00000000E+00
  0.00000000E+00  0.00000000E+00  0.00000000E+00
  0.00000000E+00  0.00000000E+00  0.00000000E+00
  0.00000000E+00  0.00000000E+00  0.00000000E+00
  0.00000000E+00  0.00000000E+00  0.00000000E+00
  0.00000000E+00  0.00000000E+00  0.00000000E+00
  0.00000000E+00  0.00000000E+00  0.00000000E+00
  0.00000000E+00  0.00000000E+00  0.00000000E+00
  0.00000000E+00  0.00000000E+00  0.00000000E+00
  0.00000000E+00  0.00000000E+00  0.00000000E+00
  0.00000000E+00  0.00000000E+00  0.00000000E+00
  0.00000000E+00  0.00000000E+00  0.00000000E+00
  0.00000000E+00  0.00000000E+00  0.00000000E+00
  0.00000000E+00  0.00000000E+00  0.00000000E+00
  0.00000000E+00  0.00000000E+00  0.00000000E+00
  0.00000000E+00  0.00000000E+00  0.00000000E+00
  0.00000000E+00  0.00000000E+00  0.00000000E+00
  0.00000000E+00  0.00000000E+00  0.00000000E+00
  0.00000000E+00  0.00000000E+00  0.00000000E+00
  0.00000000E+00  0.00000000E+00  0.00000000E+00
  0.00000000E+00  0.00000000E+00  0.00000000E+00
  0.00000000E+00  0.00000000E+00  0.00000000E+00
  0.00000000E+00  0.00000000E+00  0.00000000E+00
  0.00000000E+00  0.00000000E+00  0.00000000E+00
  0.00000000E+00  0.00000000E+00  0.00000000E+00
  0.00000000E+00  0.00000000E+00  0.00000000E+00
  0.00000000E+00  0.00000000E+00  0.00000000E+00
  0.00000000E+00  0.00000000E+00  0.00000000E+00
  0.00000000E+00  0.00000000E+00  0.00000000E+00
  0.00000000E+00  0.00000000E+00  0.00000000E+00
  0.00000000E+00  0.00000000E+00  0.00000000E+00
  0.00000000E+00  0.00000000E+00  0.00000000E+00
  0.00000000E+00  0.00000000E+00  0.00000000E+00
  0.00000000E+00  0.00000000E+00  0.00000000E+00
  0.00000000E+00  0.00000000E+00  0.00000000E+00
  0.00000000E+00  0.00000000E+00  0.00000000E+00
  0.00000000E+00  0.00000000E+00  0.00000000E+00
  0.00000000E+00  0.00000000E+00  0.00000000E+00
  0.00000000E+00  0.00000000E+00  0.00000000E+00
  0.00000000E+00  0.00000000E+00  0.00000000E+00
  0.00000000E+00  0.00000000E+00  0.00000000E+00
  0.00000000E+00  0.00000000E+00  0.00000000E+00
  0.00000000E+00  0.00000000E+00  0.00000000E+00
  0.00000000E+00  0.00000000E+00  0.00000000E+00
  0.00000000E+00  0.00000000E+00  0.00000000E+00
  0.00000000E+00  0.00000000E+00  0.00000000E+00
  0.00000000E+00  0.00000000E+00  0.00000000E+00
  0.00000000E+00  0.00000000E+00  0.00000000E+00
  0.00000000E+00  0.00000000E+00  0.00000000E+00
  0.00000000E+00  0.00000000E+00  0.00000000E+00
  0.00000000E+00  0.00000000E+00  0.00000000E+00
  0.00000000E+00  0.00000000E+00  0.00000000E+00
  0.00000000E+00  0.00000000E+00  0.00000000E+00
  0.00000000E+00  0.00000000E+00  0.00000000E+00
  0.00000000E+00  0.00000000E+00  0.00000000E+00
  0.00000000E+00  0.00000000E+00  0.00000000E+00
  0.00000000E+00  0.00000000E+00  0.00000000E+00
  0.00000000E+00  0.00000000E+00  0.00000000E+00
  0.00000000E+00  0.00000000E+00  0.00000000E+00
  0.00000000E+00  0.00000000E+00  0.00000000E+00
  0.00000000E+00  0.00000000E+00  0.00000000E+00
  0.00000000E+00  0.00000000E+00  0.00000000E+00
  0.00000000E+00  0.00000000E+00  0.00000000E+00
  0.00000000E+00  0.00000000E+00  0.00000000E+00
  0.00000000E+00  0.00000000E+00  0.00000000E+00
  0.00000000E+00  0.00000000E+00  0.00000000E+00
  0.00000000E+00  0.00000000E+00  0.00000000E+00
  0.00000000E+00  0.00000000E+00  0.00000000E+00
  0.00000000E+00  0.00000000E+00  0.00000000E+00
  0.00000000E+00  0.00000000E+00  0.00000000E+00
  0.00000000E+00  0.00000000E+00  0.00000000E+00
  0.00000000E+00  0.00000000E+00  0.00000000E+00
  0.00000000E+00  0.00000000E+00  0.00000000E+00
  0.00000000E+00  0.00000000E+00  0.00000000E+00
  0.00000000E+00  0.00000000E+00  0.00000000E+00
  0.00000000E+00  0.00000000E+00  0.00000000E+00
  0.00000000E+00  0.00000000E+00  0.00000000E+00
  0.00000000E+00  0.00000000E+00  0.00000000E+00
  0.00000000E+00  0.00000000E+00  0.00000000E+00
  0.00000000E+00  0.00000000E+00  0.00000000E+00
  0.00000000E+00  0.00000000E+00  0.00000000E+00
  0.00000000E+00  0.00000000E+00  0.00000000E+00
  0.00000000E+00  0.00000000E+00  0.00000000E+00
  0.00000000E+00  0.00000000E+00  0.00000000E+00
  0.00000000E+00  0.00000000E+00  0.00000000E+00
  0.00000000E+00  0.00000000E+00  0.00000000E+00
  0.00000000E+00  0.00000000E+00  0.00000000E+00
  0.00000000E+00  0.00000000E+00  0.00000000E+00
  0.00000000E+00  0.00000000E+00  0.00000000E+00
  0.00000000E+00  0.00000000E+00  0.00000000E+00
  0.00000000E+00  0.00000000E+00  0.00000000E+00
  0.00000000E+00  0.00000000E+00  0.00000000E+00
  0.00000000E+00  0.00000000E+00  0.00000000E+00
  0.00000000E+00  0.00000000E+00  0.00000000E+00
  0.00000000E+00  0.00000000E+00  0.00000000E+00
  0.00000000E+00  0.00000000E+00  0.00000000E+00
  0.00000000E+00  0.00000000E+00  0.00000000E+00
  0.00000000E+00  0.00000000E+00  0.00000000E+00
  0.00000000E+00  0.00000000E+00  0.00000000E+00
  0.00000000E+00  0.00000000E+00  0.00000000E+00
  0.00000000E+00  0.00000000E+00  0.00000000E+00
  0.00000000E+00  0.00000000E+00  0.00000000E+00
